3
35
74
40	31
1	2	14	6	12	4	
2	2	12	5	15	4	
3	3	8	15	29	3	27	3	
4	2	20	4	27	3	
5	3	4	9	6	8	24	3	
6	2	13	7	11	5	
7	3	9	8	15	7	8	4	
8	1	15	5	
9	2	7	15	7	11	
10	2	4	9	27	3	
11	2	31	4	12	4	
12	2	5	15	26	2	
13	1	15	5	
14	3	28	3	29	2	13	2	
15	1	27	3	
16	3	11	6	19	4	27	2	
17	2	5	16	16	4	
18	2	7	13	4	10	
19	2	9	7	11	5	
20	1	5	10	
21	1	5	7	
22	1	11	5	
23	2	10	5	15	4	
24	3	5	11	5	8	10	7	
25	1	17	3	
26	2	8	9	14	3	
27	2	16	3	23	2	
28	3	7	12	6	12	5	11	
29	3	7	15	8	7	5	7	
30	3	6	15	17	3	21	2	
31	1	15	7	
32	3	14	5	28	3	22	3	
33	3	8	15	23	3	16	2	
34	2	5	12	27	4	
35	3	4	15	5	11	16	6	
